NAME          
ROWS
 N  OBJ
 L  c1
COLUMNS
    MARKER    'MARKER'                 'INTORG'
    x[1]      c1        904
    x[1]      OBJ       -888
    x[2]      c1        430
    x[2]      OBJ       -504
    x[3]      c1        325
    x[3]      OBJ       -272
    x[4]      c1        870
    x[4]      OBJ       -861
    x[5]      c1        540
    x[5]      OBJ       -469
    x[6]      c1        583
    x[6]      OBJ       -496
    x[7]      c1        338
    x[7]      OBJ       -261
    x[8]      c1        55
    x[8]      OBJ       -122
    x[9]      c1        180
    x[9]      OBJ       -218
    x[10]     c1        435
    x[10]     OBJ       -360
    x[11]     c1        279
    x[11]     OBJ       -278
    x[12]     c1        591
    x[12]     OBJ       -656
    x[13]     c1        641
    x[13]     OBJ       -719
    x[14]     c1        212
    x[14]     OBJ       -278
    x[15]     c1        248
    x[15]     OBJ       -164
    x[16]     c1        165
    x[16]     OBJ       -172
    x[17]     c1        651
    x[17]     OBJ       -741
    x[18]     c1        545
    x[18]     OBJ       -525
    x[19]     c1        308
    x[19]     OBJ       -389
    x[20]     c1        1021
    x[20]     OBJ       -953
    x[21]     c1        1028
    x[21]     OBJ       -940
    x[22]     c1        475
    x[22]     OBJ       -379
    x[23]     c1        869
    x[23]     OBJ       -836
    x[24]     c1        316
    x[24]     OBJ       -223
    x[25]     c1        301
    x[25]     OBJ       -371
    x[26]     c1        251
    x[26]     OBJ       -254
    x[27]     c1        282
    x[27]     OBJ       -293
    x[28]     c1        708
    x[28]     OBJ       -765
    x[29]     c1        333
    x[29]     OBJ       -340
    x[30]     c1        7
    x[30]     OBJ       -59
    x[31]     c1        548
    x[31]     OBJ       -500
    x[32]     c1        3
    x[32]     OBJ       -67
    x[33]     c1        750
    x[33]     OBJ       -652
    x[34]     c1        873
    x[34]     OBJ       -834
    x[35]     c1        914
    x[35]     OBJ       -866
    x[36]     c1        162
    x[36]     OBJ       -192
    x[37]     c1        463
    x[37]     OBJ       -436
    x[38]     c1        9
    x[38]     OBJ       -57
    x[39]     c1        364
    x[39]     OBJ       -433
    x[40]     c1        241
    x[40]     OBJ       -167
    x[41]     c1        -31
    x[41]     OBJ       -56
    x[42]     c1        429
    x[42]     OBJ       -367
    x[43]     c1        315
    x[43]     OBJ       -393
    x[44]     c1        419
    x[44]     OBJ       -484
    x[45]     c1        607
    x[45]     OBJ       -526
    x[46]     c1        150
    x[46]     OBJ       -192
    x[47]     c1        847
    x[47]     OBJ       -773
    x[48]     c1        223
    x[48]     OBJ       -238
    x[49]     c1        159
    x[49]     OBJ       -195
    x[50]     c1        857
    x[50]     OBJ       -776
    x[51]     c1        443
    x[51]     OBJ       -406
    x[52]     c1        80
    x[52]     OBJ       -137
    x[53]     c1        190
    x[53]     OBJ       -287
    x[54]     c1        277
    x[54]     OBJ       -202
    x[55]     c1        128
    x[55]     OBJ       -141
    x[56]     c1        479
    x[56]     OBJ       -435
    x[57]     c1        700
    x[57]     OBJ       -606
    x[58]     c1        868
    x[58]     OBJ       -940
    x[59]     c1        394
    x[59]     OBJ       -391
    x[60]     c1        169
    x[60]     OBJ       -224
    x[61]     c1        -46
    x[61]     OBJ       -45
    x[62]     c1        410
    x[62]     OBJ       -381
    x[63]     c1        740
    x[63]     OBJ       -683
    x[64]     c1        143
    x[64]     OBJ       -53
    x[65]     c1        87
    x[65]     OBJ       -34
    x[66]     c1        -19
    x[66]     OBJ       -7
    x[67]     c1        406
    x[67]     OBJ       -442
    x[68]     c1        423
    x[68]     OBJ       -482
    x[69]     c1        614
    x[69]     OBJ       -587
    x[70]     c1        643
    x[70]     OBJ       -596
    x[71]     c1        166
    x[71]     OBJ       -129
    x[72]     c1        229
    x[72]     OBJ       -238
    x[73]     c1        414
    x[73]     OBJ       -397
    x[74]     c1        831
    x[74]     OBJ       -743
    x[75]     c1        553
    x[75]     OBJ       -642
RHS
    rhs       c1        15758
RANGES
BOUNDS
 LO bounds    x[1]      0
 PL bounds    x[1]
 LO bounds    x[2]      0
 PL bounds    x[2]
 LO bounds    x[3]      0
 PL bounds    x[3]
 LO bounds    x[4]      0
 PL bounds    x[4]
 LO bounds    x[5]      0
 PL bounds    x[5]
 LO bounds    x[6]      0
 PL bounds    x[6]
 LO bounds    x[7]      0
 PL bounds    x[7]
 LO bounds    x[8]      0
 PL bounds    x[8]
 LO bounds    x[9]      0
 PL bounds    x[9]
 LO bounds    x[10]     0
 PL bounds    x[10]
 LO bounds    x[11]     0
 PL bounds    x[11]
 LO bounds    x[12]     0
 PL bounds    x[12]
 LO bounds    x[13]     0
 PL bounds    x[13]
 LO bounds    x[14]     0
 PL bounds    x[14]
 LO bounds    x[15]     0
 PL bounds    x[15]
 LO bounds    x[16]     0
 PL bounds    x[16]
 LO bounds    x[17]     0
 PL bounds    x[17]
 LO bounds    x[18]     0
 PL bounds    x[18]
 LO bounds    x[19]     0
 PL bounds    x[19]
 LO bounds    x[20]     0
 PL bounds    x[20]
 LO bounds    x[21]     0
 PL bounds    x[21]
 LO bounds    x[22]     0
 PL bounds    x[22]
 LO bounds    x[23]     0
 PL bounds    x[23]
 LO bounds    x[24]     0
 PL bounds    x[24]
 LO bounds    x[25]     0
 PL bounds    x[25]
 LO bounds    x[26]     0
 PL bounds    x[26]
 LO bounds    x[27]     0
 PL bounds    x[27]
 LO bounds    x[28]     0
 PL bounds    x[28]
 LO bounds    x[29]     0
 PL bounds    x[29]
 LO bounds    x[30]     0
 PL bounds    x[30]
 LO bounds    x[31]     0
 PL bounds    x[31]
 LO bounds    x[32]     0
 PL bounds    x[32]
 LO bounds    x[33]     0
 PL bounds    x[33]
 LO bounds    x[34]     0
 PL bounds    x[34]
 LO bounds    x[35]     0
 PL bounds    x[35]
 LO bounds    x[36]     0
 PL bounds    x[36]
 LO bounds    x[37]     0
 PL bounds    x[37]
 LO bounds    x[38]     0
 PL bounds    x[38]
 LO bounds    x[39]     0
 PL bounds    x[39]
 LO bounds    x[40]     0
 PL bounds    x[40]
 LO bounds    x[41]     0
 PL bounds    x[41]
 LO bounds    x[42]     0
 PL bounds    x[42]
 LO bounds    x[43]     0
 PL bounds    x[43]
 LO bounds    x[44]     0
 PL bounds    x[44]
 LO bounds    x[45]     0
 PL bounds    x[45]
 LO bounds    x[46]     0
 PL bounds    x[46]
 LO bounds    x[47]     0
 PL bounds    x[47]
 LO bounds    x[48]     0
 PL bounds    x[48]
 LO bounds    x[49]     0
 PL bounds    x[49]
 LO bounds    x[50]     0
 PL bounds    x[50]
 LO bounds    x[51]     0
 PL bounds    x[51]
 LO bounds    x[52]     0
 PL bounds    x[52]
 LO bounds    x[53]     0
 PL bounds    x[53]
 LO bounds    x[54]     0
 PL bounds    x[54]
 LO bounds    x[55]     0
 PL bounds    x[55]
 LO bounds    x[56]     0
 PL bounds    x[56]
 LO bounds    x[57]     0
 PL bounds    x[57]
 LO bounds    x[58]     0
 PL bounds    x[58]
 LO bounds    x[59]     0
 PL bounds    x[59]
 LO bounds    x[60]     0
 PL bounds    x[60]
 LO bounds    x[61]     0
 PL bounds    x[61]
 LO bounds    x[62]     0
 PL bounds    x[62]
 LO bounds    x[63]     0
 PL bounds    x[63]
 LO bounds    x[64]     0
 PL bounds    x[64]
 LO bounds    x[65]     0
 PL bounds    x[65]
 LO bounds    x[66]     0
 PL bounds    x[66]
 LO bounds    x[67]     0
 PL bounds    x[67]
 LO bounds    x[68]     0
 PL bounds    x[68]
 LO bounds    x[69]     0
 PL bounds    x[69]
 LO bounds    x[70]     0
 PL bounds    x[70]
 LO bounds    x[71]     0
 PL bounds    x[71]
 LO bounds    x[72]     0
 PL bounds    x[72]
 LO bounds    x[73]     0
 PL bounds    x[73]
 LO bounds    x[74]     0
 PL bounds    x[74]
 LO bounds    x[75]     0
 PL bounds    x[75]
ENDATA
